NAME: Random_70_1
ELLAPSED_TIME_(ms): 340
TOUR_SIZE: 1442
TOUR_SECTION
0
53
5
42
62
22
9
12
35
51
38
65
49
6
67
47
37
20
34
48
59
56
4
11
23
41
3
24
61
55
25
33
8
16
54
44
68
1
60
45
13
7
31
52
57
15
43
29
63
18
26
40
64
30
19
36
10
46
17
32
27
69
21
14
28
39
50
58
66
2
0
EOF
